
Log started (V12.5.1.0) Tue Sep 11 17:36:57 2018

No problem exists.
No file written.
File 'exo2.lp' not found.
No file read.

Problem 'exo2.lp' read.
Read time = 0.01 sec. (0.00 ticks)
Maximize
 obj: 5 x - 3 y
Subject To
 c1: x - y >= 2
 c2: 2 x + 3 y <= 6
 c3: - x + 5 y  = 10
Bounds
      y Free
 All other variables are >= 0.
No solution exists.
No dual solution exists.
Maximize
 obj: 5 x - 3 y
Subject To
 c1: x - y >= 2
 c2: 2 x + 3 y <= 6
 c3: - x + 5 y  = 10
Bounds
      y Free
 All other variables are >= 0.

Variable y coefficients
   Linear Constraint:   Coefficient:
                 obj             -3 (objective)
                  c1             -1
                  c2              3
                  c3              5

CPLEX Error  1217: No solution exists.
No file written.
File 'exo2p2.lp' not found.
No file read.

Problem 'exo1p2.lp' read.
Read time = 0.01 sec. (0.00 ticks)
Minimize
 obj: x
Subject To
 c1: x <= 200
Bounds
 The variable is >= 0.
Minimize
 obj: x
Subject To
 c1: x <= 200
Bounds
 The variable is >= 0.
No solution exists.
Minimize
 obj: x
Subject To
 c1: x <= 200
Bounds
 The variable is >= 0.
Tried aggregator 1 time.
LP Presolve eliminated 1 rows and 1 columns.
All rows and columns eliminated.
Presolve time = 0.00 sec. (0.00 ticks)

Primal simplex - Optimal:  Objective =  0.0000000000e+00
Solution time =    0.03 sec.  Iterations = 0 (0)
Deterministic time = 0.00 ticks  (0.03 ticks/sec)


The variable 'x' is 0.
Present bounds on variable x: The specified variable is >= 0.
New bounds on variable 'x':       x Free
Using devex.

Primal simplex - Unbounded:  Objective =  0.0000000000e+00
Solution time =    0.00 sec.  Iterations = 0 (0)
Diverging variable = x
Deterministic time = 0.00 ticks  (0.34 ticks/sec)


The variable 'x' is 0.
Minimize
 obj: x
Subject To
 c1: x <= 200
Bounds
      x Free
Using devex.

Primal simplex - Unbounded:  Objective =  0.0000000000e+00
Solution time =    0.00 sec.  Iterations = 0 (0)
Diverging variable = x
Deterministic time = 0.00 ticks  (0.34 ticks/sec)


The variable 'x' is 0.
Minimize
 obj: x
Subject To
 c1: x <= 200
Bounds
      x Free
Primal simplex - Unbounded:  Objective =  0.0000000000e+00
Diverging variable = x

Problem 'exo1p2.lp' read.
Read time = 0.00 sec. (0.00 ticks)
Dual infeasible due to empty column 'x'.
Presolve time = 0.00 sec. (0.00 ticks)
Presolve - Unbounded or infeasible.
Solution time =    0.00 sec.
Deterministic time = 0.00 ticks  (0.13 ticks/sec)
No solution exists.
Minimize
 obj: x
Subject To
 c1: x <= 200
Bounds
      x Free

Problem 'exo1p1.lp' read.
Read time = 0.00 sec. (0.00 ticks)
Implied bounds make row 'c1' infeasible.
Presolve time = 0.00 sec. (0.00 ticks)
Presolve - Infeasible.
Solution time =    0.00 sec.
Deterministic time = 0.00 ticks  (1.37 ticks/sec)
No solution exists.
Maximize
 obj: 5 x - 3 y
Subject To
 c1: x - y >= 2
 c2: 2 x + 3 y <= 6
 c3: - x + 5 y  = 10
Bounds
 All variables are >= 0.

Problem 'exo1p1.lp' read.
Read time = 0.01 sec. (0.00 ticks)
Bound infeasibility column 'x'.
Presolve time = 0.00 sec. (0.00 ticks)
Presolve - Infeasible.
Solution time =    0.00 sec.
Deterministic time = 0.00 ticks  (1.90 ticks/sec)
No solution exists.
Maximize
 obj: 5 x - 3 y
Subject To
 c1: x - y >= 2
 c2: 2 x + 3 y <= 6
 c3: - x + 5 y  = 10
Bounds
      y Free
 All other variables are >= 0.
Sense of constraint 'c3' changed to '<='.
Dual infeasible due to empty column 'x'.
Presolve time = 0.00 sec. (0.00 ticks)
Presolve - Unbounded or infeasible.
Solution time =    0.00 sec.
Deterministic time = 0.00 ticks  (1.32 ticks/sec)
No solution exists.
No solution exists.
Maximize
 obj: 5 x - 3 y
Subject To
 c1: x - y >= 2
 c2: 2 x + 3 y <= 6
 c3: - x + 5 y <= 10
Bounds
      y Free
 All other variables are >= 0.
Present bounds on variable y:       y Free
New bounds on variable 'y': The specified variable is >= 0.
Tried aggregator 1 time.
LP Presolve eliminated 3 rows and 2 columns.
All rows and columns eliminated.
Presolve time = 0.00 sec. (0.00 ticks)

Dual simplex - Optimal:  Objective =  1.5000000000e+01
Solution time =    0.00 sec.  Iterations = 0 (0)
Deterministic time = 0.00 ticks  (2.86 ticks/sec)


Variable Name           Solution Value
x                             3.000000
All other variables in the range 1-2 are 0.

Constraint Name            Slack Value
slack c1                     -1.000000

Constraint Name            Slack Value
slack c1                     -1.000000
slack c3                     13.000000
All other slacks in the range 1-3 are 0.

Problem written to file 'exo1p1.mps'.
No file written.

Solution written to file 'exo1p1.sol'.

Problem 'exo1p3.lp' read.
Read time = 0.01 sec. (0.00 ticks)
Tried aggregator 1 time.
No LP presolve or aggregator reductions.
Presolve time = 0.00 sec. (0.00 ticks)

Iteration log . . .
Iteration:     1   Dual infeasibility =             0.000000
Iteration:     2   Dual objective     =           202.500000

Dual simplex - Optimal:  Objective =  2.0250000000e+02
Solution time =    0.00 sec.  Iterations = 2 (1)
Deterministic time = 0.00 ticks  (4.48 ticks/sec)


Variable Name           Solution Value
x                            40.000000
y                            17.500000
z                            42.500000
CPLEX Error  1423: Could not open file 'cons' for reading.
CPLEX Error  1423: Could not open file 'cons.lp' for reading.

Problem not changed.

Problem addition successful.
Maximize
 obj: x + 2 y + 3 z
Subject To
 c1: - x + y + z <= 20
 c2: x - 3 y + z <= 30
 c3: x + 2 y + 3 z <= 50
Bounds
 0 <= x <= 40
 All other variables are >= 0.

Problem written to file 'exo1p3.lp'.

Iteration log . . .
Iteration:     1    Infeasibility =            14.999999
Switched to devex.

Primal simplex - Optimal:  Objective =  5.0000000000e+01
Solution time =    0.00 sec.  Iterations = 3 (3)
Deterministic time = 0.00 ticks  (2.80 ticks/sec)


Variable Name           Solution Value
z                            16.666667
All other variables in the range 1-3 are 0.
Maximize
 obj: x + 2 y + 3 z
Subject To
 c1: - x + y + z <= 20
 c2: x - 3 y + z <= 30
 c3: x + 2 y + 3 z <= 50
Bounds
 0 <= x <= 40
 All other variables are >= 0.
Sense of constraint 'c1' changed to '='.

Iteration log . . .
Iteration:     1   Dual objective     =            50.000000

Dual simplex - Optimal:  Objective =  5.0000000000e+01
Solution time =    0.00 sec.  Iterations = 1 (0)
Deterministic time = 0.00 ticks  (2.03 ticks/sec)

